14
0 67 29 90 8 37 22 45 94 78 1 99 73 14 
67 0 4 93 0 70 12 78 35 17 71 55 13 21 
29 4 0 47 95 16 33 17 3 71 80 28 35 58 
90 93 47 0 57 6 67 48 64 99 21 47 3 51 
8 0 95 57 0 4 23 63 5 18 83 93 83 79 
37 70 16 6 4 0 77 20 52 56 31 5 36 52 
22 12 33 67 23 77 0 68 28 36 3 44 56 94 
45 78 17 48 63 20 68 0 21 38 33 46 40 72 
94 35 3 64 5 52 28 21 0 52 46 3 58 16 
78 17 71 99 18 56 36 38 52 0 69 53 0 42 
1 71 80 21 83 31 3 33 46 69 0 48 64 96 
99 55 28 47 93 5 44 46 3 53 48 0 90 85 
73 13 35 3 83 36 56 40 58 0 64 90 0 99 
14 21 58 51 79 52 94 72 16 42 96 85 99 0 
BRBRBRRBRBBRBR
